Route #1: 4 45 29 30 2
Route #2: 33 1 43 41 42 64 22
Route #3: 62 28 61 21 47 48
Route #4: 5 36 60 20 37 15 57 13
Route #5: 46 8 19 54 27 52 34
Route #6: 53 11 59 14 35
Route #7: 7 58 38 10 31 39
Route #8: 9 25 55 18 50 32 44
Route #9: 3 24 49 56 23 63 16 6
Route #10: 51 17 40 12 26
Cost 815